RT is False
Default write of storage_offers_DA.csv just to have a file (but constraint should be inactive)
Reading model...
...model read.
creating competitive generators file...
...competitive generators recorded.
Loading data...
.. day-ahead data read.
Compiling instance...
...instance created.
Creating Offer Mitigation (model will solve as dispatch if TRUE)...
NOTE: storage offers will not be mitigated
...storage offer mitigation file created
Converting model to MPEC...
...converted
NOTE: initial MIP solve with only storage competitive to get feasible solution
Solving...

Welcome to IBM(R) ILOG(R) CPLEX(R) Interactive Optimizer 12.9.0.0
  with Simplex, Mixed Integer & Barrier Optimizers
5725-A06 5725-A29 5724-Y48 5724-Y49 5724-Y54 5724-Y55 5655-Y21
Copyright IBM Corp. 1988, 2019.  All Rights Reserved.

Type 'help' for a list of available commands.
Type 'help' followed by a command name for more
information on commands.

CPLEX> Logfile 'cplex.log' closed.
Logfile 'C:\Users\Luke\Desktop\test919\logs\tmp3ddv8b17.cplex.log' open.
CPLEX> New value for parallel optimization mode: -1
CPLEX> New value for mixed integer optimality gap tolerance: 0.01
CPLEX> New value for integrality tolerance: 1e-09
CPLEX> New value for feasibility tolerance: 0.01
CPLEX> New value for deterministic time limit in ticks: 75000
CPLEX> Problem 'C:\Users\Luke\Desktop\test919\logs\tmpayo231a8.pyomo.lp' read.
Read time = 0.19 sec. (14.73 ticks)
CPLEX> Problem name         : C:\Users\Luke\Desktop\test919\logs\tmpayo231a8.pyomo.lp
Objective sense      : Maximize
Variables            :   53805  [Nneg: 1,  Box: 22000,  Free: 4464,
                                 Binary: 27340]
Objective nonzeros   :    9061
Linear constraints   :  123205  [Less: 41346,  Greater: 59096,  Equal: 22763]
  Nonzeros           :  291785
  RHS nonzeros       :   67523

Variables            : Min LB: -5000.000        Max UB: 1000000.       
Objective nonzeros   : Min   : 0.2000000        Max   : 2500.000       
Linear constraints   :
  Nonzeros           : Min   : 0.2000000        Max   : 1000000.       
  RHS nonzeros       : Min   : 0.2000000        Max   : 1000000.       
CPLEX> CPXPARAM_Parallel                                -1
CPXPARAM_Simplex_Tolerances_Feasibility          0.01
CPXPARAM_DetTimeLimit                            75000
CPXPARAM_MIP_Tolerances_MIPGap                   0.01
CPXPARAM_MIP_Tolerances_Integrality              1.0000000000000001e-09
Tried aggregator 3 times.
MIP Presolve eliminated 88576 rows and 18926 columns.
MIP Presolve added 3402 rows and 0 columns.
MIP Presolve modified 24904 coefficients.
Aggregator did 12963 substitutions.
Reduced MIP has 25068 rows, 21386 columns, and 71428 nonzeros.
Reduced MIP has 8453 binaries, 0 generals, 0 SOSs, and 0 indicators.
Presolve time = 0.25 sec. (176.13 ticks)
Probing fixed 400 vars, tightened 2886 bounds.
Probing time = 1.52 sec. (898.26 ticks)
Tried aggregator 2 times.
MIP Presolve eliminated 901 rows and 803 columns.
MIP Presolve modified 2245 coefficients.
Aggregator did 45 substitutions.
Reduced MIP has 24122 rows, 20538 columns, and 68683 nonzeros.
Reduced MIP has 8052 binaries, 0 generals, 0 SOSs, and 0 indicators.
Presolve time = 0.09 sec. (71.99 ticks)
Probing time = 0.03 sec. (16.30 ticks)
Clique table members: 6282.
MIP emphasis: balance optimality and feasibility.
MIP search method: dynamic search.
Parallel mode: opportunistic, using up to 24 threads.
Root relaxation solution time = 0.44 sec. (323.19 ticks)

        Nodes                                         Cuts/
   Node  Left     Objective  IInf  Best Integer    Best Bound    ItCnt     Gap

      0     0     3652.9405  1955                   3652.9405     7389         
      0     0     3647.0627    21                    Cuts: 17     7398         
      0     0     3647.0627    22                    Cuts: 17     7402         
      0     0     3652.1269    14                Flowcuts: 11     7412         
      0     0     3651.4832    15                     Cuts: 3     7416         
      0     0     3651.4832    16                 Flowcuts: 3     7417         
      0    11    infeasible                         Covers: 1     7534         
Elapsed time = 8.75 sec. (5994.07 ticks, tree = 0.02 MB, solutions = 0)
    431    59     3574.9017     7                   3645.6053    10159         
    902   271     3478.1468     4                   3645.6053    20038         
   1498   352    infeasible                         3630.8284    26604         
*  1849+  126                         3552.1913     3630.8284             2.21%
*  1959   122      integral     0     3630.8284     3630.8284    44317    0.00%

Cover cuts applied:  2
Flow cuts applied:  17
Gomory fractional cuts applied:  3

Root node processing (before b&c):
  Real time             =    8.37 sec. (5986.48 ticks)
Parallel b&c, 24 threads:
  Real time             =    3.09 sec. (1158.94 ticks)
  Sync time (average)   =    0.30 sec.
  Wait time (average)   =    0.00 sec.
                          ------------
Total (root+branch&cut) =   11.47 sec. (7145.43 ticks)

Solution pool: 5 solutions saved.

MIP - Integer optimal solution:  Objective =  3.6308284235e+03
Solution time =   11.48 sec.  Iterations = 44907  Nodes = 1999
Deterministic time = 7145.58 ticks  (622.22 ticks/sec)

CPLEX> Incumbent solution written to file 'C:\Users\Luke\Desktop\test919\logs\tmp__1r737d.cplex.sol'.
CPLEX> NOTE: no warmstart specified for MIP iteration, default behavior is true
NOTE: resolving with all competitive generators using storage-only solution to warmstart
Solving...

Welcome to IBM(R) ILOG(R) CPLEX(R) Interactive Optimizer 12.9.0.0
  with Simplex, Mixed Integer & Barrier Optimizers
5725-A06 5725-A29 5724-Y48 5724-Y49 5724-Y54 5724-Y55 5655-Y21
Copyright IBM Corp. 1988, 2019.  All Rights Reserved.

Type 'help' for a list of available commands.
Type 'help' followed by a command name for more
information on commands.

CPLEX> Logfile 'cplex.log' closed.
Logfile 'C:\Users\Luke\Desktop\test919\logs\tmp4uibmz34.cplex.log' open.
CPLEX> New value for parallel optimization mode: -1
CPLEX> New value for mixed integer optimality gap tolerance: 0.01
CPLEX> New value for integrality tolerance: 1e-09
CPLEX> New value for feasibility tolerance: 0.01
CPLEX> New value for deterministic time limit in ticks: 75000
CPLEX> Problem 'C:\Users\Luke\Desktop\test919\logs\tmpybbccpv2.pyomo.lp' read.
Read time = 0.20 sec. (14.75 ticks)
CPLEX> MIP start file 'C:\Users\Luke\Desktop\test919\logs\tmpdriwh7cb.cplex.mst' read.
CPLEX> Problem name         : C:\Users\Luke\Desktop\test919\logs\tmpybbccpv2.pyomo.lp
Objective sense      : Maximize
Variables            :   54525  [Nneg: 1,  Box: 22720,  Free: 4464,
                                 Binary: 27340]
Objective nonzeros   :    9781
Linear constraints   :  123205  [Less: 41346,  Greater: 59096,  Equal: 22763]
  Nonzeros           :  291785
  RHS nonzeros       :   67523

Variables            : Min LB: -5000.000        Max UB: 1000000.       
Objective nonzeros   : Min   : 0.2000000        Max   : 2500.000       
Linear constraints   :
  Nonzeros           : Min   : 0.2000000        Max   : 1000000.       
  RHS nonzeros       : Min   : 0.2000000        Max   : 1000000.       
CPLEX> CPXPARAM_Parallel                                -1
CPXPARAM_Simplex_Tolerances_Feasibility          0.01
CPXPARAM_DetTimeLimit                            75000
CPXPARAM_MIP_Tolerances_MIPGap                   0.01
CPXPARAM_MIP_Tolerances_Integrality              1.0000000000000001e-09
Warning:  No solution found from 1 MIP starts.
Retaining values of one MIP start for possible repair.
Tried aggregator 3 times.
MIP Presolve eliminated 88576 rows and 19646 columns.
MIP Presolve added 3402 rows and 0 columns.
MIP Presolve modified 24904 coefficients.
Aggregator did 12963 substitutions.
Reduced MIP has 25068 rows, 21386 columns, and 71428 nonzeros.
Reduced MIP has 8453 binaries, 0 generals, 0 SOSs, and 0 indicators.
Presolve time = 0.23 sec. (176.50 ticks)
Probing fixed 400 vars, tightened 2886 bounds.
Probing time = 1.53 sec. (898.26 ticks)
Tried aggregator 2 times.
MIP Presolve eliminated 901 rows and 803 columns.
MIP Presolve modified 2245 coefficients.
Aggregator did 45 substitutions.
Reduced MIP has 24122 rows, 20538 columns, and 68683 nonzeros.
Reduced MIP has 8052 binaries, 0 generals, 0 SOSs, and 0 indicators.
Presolve time = 0.09 sec. (71.99 ticks)
Probing time = 0.03 sec. (16.30 ticks)
Clique table members: 6282.
MIP emphasis: balance optimality and feasibility.
MIP search method: dynamic search.
Parallel mode: opportunistic, using up to 24 threads.
Root relaxation solution time = 0.44 sec. (323.19 ticks)

        Nodes                                         Cuts/
   Node  Left     Objective  IInf  Best Integer    Best Bound    ItCnt     Gap

      0     0     3652.9405  1955                   3652.9405     7389         
      0     0     3647.0627    21                    Cuts: 17     7398         
      0     0     3647.0627    22                    Cuts: 17     7402         
      0     0     3652.1269    14                Flowcuts: 11     7412         
      0     0     3651.4832    15                     Cuts: 3     7416         
      0     0     3651.4832    16                 Flowcuts: 3     7417         
Repair heuristic found nothing.
      0    14    infeasible                         Covers: 1     7549         
Elapsed time = 8.94 sec. (6033.75 ticks, tree = 0.02 MB, solutions = 0)
    384    63     3586.4816     8                   3645.6053    11815         
    847   215   -27802.2294    33                   3645.6053    21827         
   1291   280     3648.6262     6                   3645.6053    25571         
*  1529+   92                         3552.1913     3645.6053             2.63%
*  1824    92      integral     0     3648.6262     3645.6053    47774   -0.08%

Cover cuts applied:  4
Flow cuts applied:  17
Gomory fractional cuts applied:  3

Root node processing (before b&c):
  Real time             =    8.58 sec. (6024.88 ticks)
Parallel b&c, 24 threads:
  Real time             =    3.13 sec. (1214.02 ticks)
  Sync time (average)   =    0.26 sec.
  Wait time (average)   =    0.00 sec.
                          ------------
Total (root+branch&cut) =   11.70 sec. (7238.90 ticks)

Solution pool: 3 solutions saved.

MIP - Integer optimal solution:  Objective =  3.6486262479e+03
Solution time =   11.70 sec.  Iterations = 49043  Nodes = 1880
Deterministic time = 7239.06 ticks  (618.56 ticks/sec)

CPLEX> Incumbent solution written to file 'C:\Users\Luke\Desktop\test919\logs\tmpao0o2cs1.cplex.sol'.
CPLEX> Exporting results... 
